c ind 1 2 3 4 5 6 7 8 9 10 11 12 13 14 15 16 17 0
p cnf 212 418               
1 -18 0
4 -18 0
-8 18 -27 0
27 -36 0
1 -19 0
5 -19 0
-9 19 -28 0
28 -36 0
1 -20 0
6 -20 0
-10 20 -29 0
29 -36 0
2 -21 0
4 -21 0
-11 21 -30 0
30 -36 0
2 -22 0
5 -22 0
-12 22 -31 0
31 -36 0
2 -23 0
6 -23 0
-13 23 -32 0
32 -36 0
3 -24 0
4 -24 0
-14 24 -33 0
33 -36 0
3 -25 0
5 -25 0
-15 25 -34 0
34 -36 0
3 -26 0
6 -26 0
-16 26 -35 0
35 -36 0
36 -71 0
-9 -8 -37 0
37 -41 0
-8 38 0
-9 38 0
-38 -10 -39 0
39 -41 0
41 -46 0
-8 4 -42 0
42 -45 0
-9 5 -43 0
43 -45 0
-10 6 -44 0
44 -45 0
45 -46 0
-1 46 -47 0
47 -70 0
-12 -11 -48 0
48 -52 0
-11 49 0
-12 49 0
-49 -13 -50 0
50 -52 0
52 -57 0
-11 4 -53 0
53 -56 0
-12 5 -54 0
54 -56 0
-13 6 -55 0
55 -56 0
56 -57 0
-2 57 -58 0
58 -70 0
-15 -14 -59 0
59 -63 0
-14 60 0
-15 60 0
-60 -16 -61 0
61 -63 0
63 -68 0
-14 4 -64 0
64 -67 0
-15 5 -65 0
65 -67 0
-16 6 -66 0
66 -67 0
67 -68 0
-3 68 -69 0
69 -70 0
70 -71 0
71 -88 0
-8 1 -72 0
72 -75 0
-11 2 -73 0
73 -75 0
-14 3 -74 0
74 -75 0
-4 75 -76 0
76 -87 0
-9 1 -77 0
77 -80 0
-12 2 -78 0
78 -80 0
-15 3 -79 0
79 -80 0
-5 80 -81 0
81 -87 0
-10 1 -82 0
82 -85 0
-13 2 -83 0
83 -85 0
-16 3 -84 0
84 -85 0
-6 85 -86 0
86 -87 0
87 -88 0
-7 88 -89 0
89 -150 0
-10 40 0
-38 40 0
-40 90 0
-13 51 0
-49 51 0
-51 90 0
-16 62 0
-60 62 0
-62 90 0
-90 7 -91 0
91 -150 0
17 -93 0
-17 7 -92 0
92 -93 0
93 -149 0
8 -94 0
17 -94 0
-8 -17 94 0
9 -95 0
17 -95 0
-9 -17 95 0
-94 -95 -103 0
94 95 -103 0
-95 95 -103 0
-94 95 103 0
94 -95 103 0
95 -95 103 0
10 -96 0
17 -96 0
-10 -17 96 0
-103 -96 -105 0
103 96 -105 0
-96 96 -105 0
-103 96 105 0
103 -96 105 0
96 -96 105 0
105 -112 0
11 -97 0
17 -97 0
-11 -17 97 0
12 -98 0
17 -98 0
-12 -17 98 0
-97 -98 -109 0
97 98 -109 0
-98 98 -109 0
-97 98 109 0
97 -98 109 0
98 -98 109 0
109 -112 0
-105 -109 112 0
96 -106 0
103 -106 0
-96 -103 106 0
94 -104 0
95 -104 0
-94 -95 104 0
-106 -104 -107 0
106 104 -107 0
-104 104 -107 0
-106 104 107 0
106 -104 107 0
104 -104 107 0
97 -110 0
98 -110 0
-97 -98 110 0
-107 -110 -113 0
107 110 -113 0
-110 110 -113 0
-107 110 113 0
107 -110 113 0
110 -110 113 0
-112 -113 -114 0
112 113 -114 0
-113 113 -114 0
-112 113 114 0
112 -113 114 0
113 -113 114 0
114 -135 0
13 -99 0
17 -99 0
-13 -17 99 0
14 -100 0
17 -100 0
-14 -17 100 0
-99 -100 -120 0
99 100 -120 0
-100 100 -120 0
-99 100 120 0
99 -100 120 0
100 -100 120 0
120 -125 0
15 -101 0
17 -101 0
-15 -17 101 0
16 -102 0
17 -102 0
-16 -17 102 0
-101 -102 -122 0
101 102 -122 0
-102 102 -122 0
-101 102 122 0
101 -102 122 0
102 -102 122 0
122 -125 0
-120 -122 125 0
99 -121 0
100 -121 0
-99 -100 121 0
101 -123 0
102 -123 0
-101 -102 123 0
-121 -123 -126 0
121 123 -126 0
-123 123 -126 0
-121 123 126 0
121 -123 126 0
123 -123 126 0
-125 -126 -127 0
125 126 -127 0
-126 126 -127 0
-125 126 127 0
125 -126 127 0
126 -126 127 0
127 -135 0
-114 -127 135 0
-135 137 0
-105 -109 -111 0
105 109 -111 0
-109 109 -111 0
-105 109 111 0
105 -109 111 0
109 -109 111 0
111 -132 0
-120 -122 -124 0
120 122 -124 0
-122 122 -124 0
-120 122 124 0
120 -122 124 0
122 -122 124 0
124 -132 0
-111 -124 132 0
132 -136 0
-114 -127 -133 0
114 127 -133 0
-127 127 -133 0
-114 127 133 0
114 -127 133 0
127 -127 133 0
133 -136 0
-132 -133 136 0
-136 137 0
135 136 -137 0
107 -115 0
110 -115 0
-107 -110 115 0
-115 117 0
112 -116 0
113 -116 0
-112 -113 116 0
-116 117 0
115 116 -117 0
104 -108 0
106 -108 0
-104 -106 108 0
-117 -108 -118 0
117 108 -118 0
-108 108 -118 0
-117 108 118 0
117 -108 118 0
108 -108 118 0
121 -128 0
123 -128 0
-121 -123 128 0
-128 130 0
125 -129 0
126 -129 0
-125 -126 129 0
-129 130 0
128 129 -130 0
-118 -130 -138 0
118 130 -138 0
-130 130 -138 0
-118 130 138 0
118 -130 138 0
130 -130 138 0
-137 -138 -139 0
137 138 -139 0
-138 138 -139 0
-137 138 139 0
137 -138 139 0
138 -138 139 0
-139 -146 0
-132 -133 -134 0
132 133 -134 0
-133 133 -134 0
139 134 143 0
-111 -124 -131 0
111 124 -131 0
-124 124 -131 0
-111 124 131 0
111 -124 131 0
124 -124 131 0
-143 131 -144 0
144 -146 0
146 -148 0
-131 134 139 -147 0
147 -148 0
148 -149 0
149 -150 0
-4 5 -151 0
151 -165 0
-4 -5 152 0
4 5 152 0
-5 5 152 0
-8 9 -153 0
-152 153 -154 0
154 -165 0
-8 -9 155 0
8 9 155 0
-9 9 155 0
-152 -155 156 0
-11 12 -157 0
-156 157 -158 0
158 -165 0
-11 -12 159 0
11 12 159 0
-12 12 159 0
-156 -159 160 0
-14 15 -161 0
-160 161 -162 0
162 -165 0
165 -211 0
-5 6 -166 0
166 -180 0
-5 -6 167 0
5 6 167 0
-6 6 167 0
-9 10 -168 0
-167 168 -169 0
169 -180 0
-9 -10 170 0
9 10 170 0
-10 10 170 0
-167 -170 171 0
-12 13 -172 0
-171 172 -173 0
173 -180 0
-12 -13 174 0
12 13 174 0
-13 13 174 0
-171 -174 175 0
-15 16 -176 0
-175 176 -177 0
177 -180 0
180 -211 0
-1 2 -181 0
181 -195 0
-1 -2 182 0
1 2 182 0
-2 2 182 0
-8 11 -183 0
-182 183 -184 0
184 -195 0
-8 -11 185 0
8 11 185 0
-11 11 185 0
-182 -185 186 0
-9 12 -187 0
-186 187 -188 0
188 -195 0
-9 -12 189 0
9 12 189 0
-12 12 189 0
-186 -189 190 0
-10 13 -191 0
-190 191 -192 0
192 -195 0
195 -211 0
-2 3 -196 0
196 -210 0
-2 -3 197 0
2 3 197 0
-3 3 197 0
-11 14 -198 0
-197 198 -199 0
199 -210 0
-11 -14 200 0
11 14 200 0
-14 14 200 0
-197 -200 201 0
-12 15 -202 0
-201 202 -203 0
203 -210 0
-12 -15 204 0
12 15 204 0
-15 15 204 0
-201 -204 205 0
-13 16 -206 0
-205 206 -207 0
207 -210 0
210 -211 0
150 0
211 0
